41 358
5 7 8 11 12 14 19 21 29 30 32 33 35 37 38
2 4 9 12 13 15 16 17 19 26 28 31 33 34 37 38 40
1 7 10 11 12 13 14 16 19 20 21 23 24 25 33 34 35 39
5 9 11 12 15 18 19 20 21 23 24 25 27 28 29 30 31 33 34 37 38 39 40
1 7 8 11 13 17 18 20 23 27 29 30 31 35 37 38 39
0 3 7 8 9 12 13 14 16 18 21 28 29 30 32 34 37 39
7 8 9 14 18 21 25 26 29 33 36 37
0 2 4 5 6 10 14 16 17 18 24 27 30 31 33 35 37 38 39
0 4 5 6 9 10 11 18 20 27 28 30 33 38 39 40
1 3 5 6 8 10 12 14 18 23 25 26 28 29 30 33 38
2 7 8 9 11 12 15 17 18 19 20 22 26 27 40
0 2 3 4 8 10 13 15 18 22 23 26 27 28 29 32 35 36 37 39
0 1 2 3 5 9 10 16 18 19 20 21 22 27 28 30 34 39 40
1 2 4 5 11 17 18 19 20 22 23 28 29 35 36 37 39 40
0 2 5 6 7 9 19 20 23 24 25 27 28 30 31 38 39
1 3 10 11 16 18 23 24 28 29 30 36 39
1 2 5 7 12 15 17 18 22 25 30 31 34 35 36 37 38
1 4 7 10 13 16 19 20 24 25 26 29 30 31 35 36 37 38 39
3 4 5 6 7 8 9 10 11 12 13 15 16 20 21 22 26 27 28 29 30 33 40
0 1 2 3 10 12 13 14 17 21 25 26 29 31 33 34 39 40
2 3 4 8 10 12 13 14 17 18 21 23 25 29 30 32 35 36 37 40
0 2 3 5 6 12 18 19 20 23 24 25 28 29 30 31 34 35 36
10 11 12 13 16 18 24 27 30 33 36 39
2 3 4 9 11 13 14 15 20 21 24 25 26 28 30 31 33 34 35 40
2 3 7 14 15 17 21 22 23 29 32 33 38 40
2 3 6 9 14 16 17 19 20 21 23 27 28 29 30 31 33 37 40
1 6 9 10 11 17 18 19 23 27 29 30 34 35 39 40
3 4 7 8 10 11 12 14 18 22 25 26 30 32 34 36 38
1 3 5 8 9 11 12 13 14 15 18 21 23 25 32 37 39
0 3 4 5 6 9 11 13 15 17 18 19 20 21 24 25 26 30 34 35 37 40
0 3 4 5 7 8 9 12 14 15 16 17 18 20 21 22 23 25 26 27 29 34 37 39 40
1 3 4 7 14 16 17 19 21 23 25 32 36 39 40
0 5 11 20 24 27 28 31 33 36 37 38 40
0 1 2 3 6 7 8 9 18 19 22 23 24 25 32 34 38
1 2 3 5 12 16 19 21 23 26 27 29 30 33 35 37 39 40
0 2 4 7 11 13 16 17 20 21 23 26 29 34 37 38
6 11 13 15 16 17 20 21 22 27 31 32 40
0 1 3 4 5 6 7 11 13 16 17 20 25 28 29 30 32 34 35
0 1 3 4 7 8 9 14 16 17 24 27 32 33 35
2 3 4 5 7 8 11 12 13 14 15 17 19 22 26 28 30 31 34
1 3 8 10 12 13 18 19 20 23 24 25 26 29 30 31 32 34 36
